200
150
100
100
99
99
99
99
98
98
98
98
98
96
96
96
95
95
95
95
95
94
94
94
92
92
92
91
91
91
90
89
89
88
88
86
86
85
85
85
84
83
83
82
82
81
81
81
81
80
80
79
79
79
79
79
79
79
78
78
78
78
78
77
77
77
77
77
77
77
76
75
75
75
74
73
73
73
73
72
72
72
71
71
71
70
70
70
68
68
67
67
66
66
66
66
66
66
65
65
65
65
65
64
63
63
63
63
63
62
62
62
62
62
62
61
61
61
61
61
60
60
59
59
57
56
56
56
56
56
55
55
55
54
53
53
52
52
52
51
50
50
50
50
50
49
49
48
48
48
47
47
46
46
46
46
45
44
44
44
44
44
43
43
43
42
42
41
41
41
41
41
41
41
40
40
40
40
39
38
38
38
38
38
38
37
37
36
36
35
35
34
34
33
33
33
33
33
32
32
32
30
